NAME: Herz
TYPE: TSP
COMMENT: 
DIMENSION: 78
EDGE_WEIGHT_TYPE: EUC_2D
NODE_COORD_SECTION
1 146.0 208.0
2 201.0 181.0
3 148.0 127.0
4 162.0 162.0
5 226.0 146.0
6 228.0 188.0
7 199.0 210.0
8 184.0 191.0
9 191.0 169.0
10 177.0 182.0
11 193.0 184.0
12 186.0 175.0
13 216.0 170.0
14 259.0 161.0
15 256.0 142.0
16 226.0 122.0
17 205.0 134.0
18 205.0 134.0
19 191.0 140.0
20 175.0 120.0
21 111.0 123.0
22 123.0 104.0
23 124.0 131.0
24 129.0 145.0
25 139.0 171.0
26 149.0 182.0
27 153.0 188.0
28 158.0 193.0
29 174.0 210.0
30 183.0 225.0
31 187.0 215.0
32 205.0 203.0
33 215.0 196.0
34 224.0 188.0
35 233.0 184.0
36 242.0 174.0
37 247.0 171.0
38 247.0 171.0
39 247.0 131.0
40 242.0 123.0
41 162.0 115.0
42 151.0 119.0
43 139.0 130.0
44 131.0 156.0
45 102.0 114.0
46 95.0 107.0
47 109.0 106.0
48 92.0 118.0
49 96.0 129.0
50 97.0 135.0
51 131.0 136.0
52 227.0 198.0
53 239.0 207.0
54 246.0 211.0
55 257.0 211.0
56 266.0 210.0
57 247.0 217.0
58 250.0 230.0
59 249.0 223.0
60 249.0 223.0
61 187.0 129.0
62 175.0 52.0
63 175.0 61.0
64 176.0 66.0
65 241.0 62.0
66 363.0 19.0
67 410.0 -18.0
68 35.0 -36.0
69 11.0 9.0
70 11.0 75.0
71 21.0 129.0
72 21.0 189.0
73 67.0 186.0
74 89.0 225.0
75 45.0 237.0
76 146.0 249.0
77 381.0 232.0
78 370.0 148.0
EOF